! template 
 $tddft  nstate=3 mult=1 iroot=1 tammd=.false. $end
 $contrl scftyp=rhf dfttyp=pbe0 tddft=excite mult=1 icharg=1
         runtyp=gradient MOLPLT=.false.  NPRINT=3 $end
 $system timlim=4 mwords=100 memddi=200 $end
 $guess  guess=huckel $end
 $basis  gbasis=N31 ngauss=6 diffsp=.T. ndfunc=1 $end

 $data
CO...excitation to the 3 lowest singlet states
C1
c            6.0  -2.5270220   0.3259045   0.1846750
n            7.0  -1.1420350   0.1457465   0.0827667
h            1.0  -2.8803009   0.8812482   1.0166599
h            1.0  -3.1260438  -0.1057322  -0.5770699
h            1.0  -0.7577445  -0.3749301  -0.6901240
h            1.0  -0.5308962   0.5370902   0.7825070
 $end 



