 $guess  guess=huckel $end
 $basis  gbasis=N31 ngauss=6 diffsp=.T. ndfunc=1 $end
 $contrl scftyp=rhf runtyp=energy exetyp=check
         NPRINT=3 MULT=1 ICHARG=2 NPRINT=3 $end
 $system timlim=4 mwords=100 memddi=200 $end
 $data
ONLY CHECK CALC, IGNORE WARINING..
C1
c            6.0  -3.0429073   0.3912112   0.2236894
n            7.0  -0.6888295   0.0858356   0.0500296
h            1.0  -3.4912928   0.9882898   1.0615413
h            1.0  -3.7409950  -0.0061892  -0.5601758
h            1.0  -0.2768851  -0.4396383  -0.7561683
h            1.0  -0.0432004   0.5084131   0.7573336
c            6.0  -3.0411058   0.3911029   0.2234826
n            7.0  -0.6910327   0.0862388   0.0501173
h            1.0  -3.4772022   0.9845277   1.0599584
h            1.0  -3.7265247  -0.0085996  -0.5592146
h            1.0  -0.2858863  -0.4408617  -0.7570598
h            1.0  -0.0515405   0.5097308   0.7608528
$end
