%chk=gaussian.chk
%mem=1GB
%nproc=2
%nproclinda=1
#   b3lyp/6-31g* scf=(tight,maxcycle=10000) iop(9/40=20) nosymm pop=full 

[0] [0]

1   1   
c           -2.7679410  -0.2973939   1.0704429
n           -2.4275358  -1.7064122   1.5665866
h           -2.6997252   0.3115252   1.9599427
h           -3.1071058   0.4676935   0.1804810
h           -2.6487257  -2.7266677   0.9286491
h           -1.9251714  -2.4037678   2.2247388

--LINK1--
%chk=gaussian.chk
%mem=1GB
%nproc=2
%nproclinda=1
# force  b3lyp/ChkBasis scf=(tight,maxcycle=10000) iop(9/40=20) nosymm pop=full  geom=AllCheck Guess=Read 

--LINK1--
%chk=gaussian.chk
%mem=1GB
%nproc=2
%nproclinda=1
#   td(singlet, root=0, nstates=2) b3lyp/ChkBasis scf=(tight,maxcycle=10000) iop(9/40=20) nosymm pop=full  geom=AllCheck Guess=Read 

