%chk=gaussian.chk
%mem=1GB
%nproc=2
%nproclinda=1
#HF/6-31g* nosymm iop(2/12=3,3/33=1) guess=only pop=full

[0] [0]

2   1   
c           -2.3968646   0.3831220   0.1112106
n           -1.2430054   0.2067258   0.1604477
h           -2.8445472   0.1433187   1.1013360
h           -2.4035079  -0.0993059  -0.8237197
h           -0.3621920   0.3638379  -0.6948661
h           -1.0178066   0.9613559   0.8665966
c           -2.3927183   0.3813235   0.1093563
n           -1.2443361   0.2083512   0.1592733
h           -2.8408849   0.1617052   1.1173091
h           -2.4081357  -0.1013021  -0.8189348
h           -0.3669429   0.3596091  -0.7031469
h           -1.0449305   0.9447395   0.8916351

