%chk=gaussian.chk
%mem=1GB
%nproc=2
# force td(singlet, root=1, nstates=2) lc-blyp/6-31g* scf=(tight,maxcycle=10000) iop(9/40=20) nosymm pop=full 

[0] [0]

1   1   
c           -3.1712841   0.4099593   0.2319336
n           -0.6341410   0.0801347   0.0451432
h           -3.5658188   1.0653778   1.2352836
h           -3.8585262  -0.1093660  -0.6899194
h           -0.1125024  -0.5205066  -0.8139564
h            0.1412738   0.5051782   0.8126349


