 $guess  guess=huckel $end
 $basis  gbasis=N31 ngauss=6 diffsp=.T. ndfunc=1 $end
 $CONTRL SCFTYP=RHF DFTTYP=B3LYP MOLPLT=.FALSE. 
         ICHARG=1 TDDFT=EXCITE RUNTYP=GRADIENT NPRINT=3 
         MULT=1  $END
 $system timlim=4 mwords=100 memddi=200 $end
 $TDDFT IROOT=1 TAMMD=.FALSE. NSTATE=2 
         MULT=1  $END
 $data
energy & gradient..
C1
c            6.0  -3.0429073   0.3912112   0.2236894
n            7.0  -0.6888295   0.0858356   0.0500296
h            1.0  -3.4912928   0.9882898   1.0615413
h            1.0  -3.7409950  -0.0061892  -0.5601758
h            1.0  -0.2768851  -0.4396383  -0.7561683
h            1.0  -0.0432004   0.5084131   0.7573336
$end
