%Nproc=4
%mem=800MB
%NoSave
%chk=s0.chk

#P hf/3-21G

S1_1--b3lyp---cc-pvdz

0  1
