%Nproc=4
%mem=800MB
%NoSave
%chk=s0.chk

#P freq=(HPmode) hf/3-21G
   geom=allcheck

S1_1--b3lyp---cc-pvdz

0  1

