! template 
 $tddft  nstate=3 mult=1 iroot=1 tammd=.false. $end
 $contrl scftyp=rhf dfttyp=b3lyp tddft=excite mult=1 icharg=1
         runtyp=gradient MOLPLT=.false.  NPRINT=3 $end
 $system timlim=4 mwords=100 memddi=200 $end
 $guess  guess=huckel $end
 $basis  gbasis=N31 ngauss=6 diffsp=.T. ndfunc=1 $end

 $data
CO...excitation to the 3 lowest singlet states
C1
C    6.0   0.0   0.0   0.0
O    8.0   0.0   0.0   1.128323
 $end 



