%chk=gaussian.chk
%mem=1GB
%nproc=2
%nproclinda=1
#   b3lyp/6-31g* scf=(tight,maxcycle=10000) iop(9/40=20) nosymm pop=full 

[0] [0]

1   1   
c           -2.4479187   0.3277590   0.2230187
n           -1.1874773   0.1525637   0.0927594
h           -2.8246003   0.9530212   1.0295854
h           -3.1338277  -0.1505673  -0.4725116
h           -0.7961682  -0.4270825  -0.6533319
h           -0.5131678   0.5838490   0.7291218

--LINK1--
%chk=gaussian.chk
%mem=1GB
%nproc=2
%nproclinda=1
# force  b3lyp/ChkBasis scf=(tight,maxcycle=10000) iop(9/40=20) nosymm pop=full  geom=AllCheck Guess=Read 

--LINK1--
%chk=gaussian.chk
%mem=1GB
%nproc=2
%nproclinda=1
#   td(singlet, root=0, nstates=2) b3lyp/ChkBasis scf=(tight,maxcycle=10000) iop(9/40=20) nosymm pop=full  geom=AllCheck Guess=Read 

