%Nproc=4
%mem=800MB
%NoSave
%chk=s0.chk

#P opt hf/3-21G

S1_1--b3lyp---cc-pvdz

0  1
 C    -0.122412    -0.170823    -0.087522
 C     1.300803    -0.254393     0.297110
 C     2.092520    -1.403679    -0.197414
 N     1.536977    -2.403488    -0.894580
 C     0.207555    -2.455276    -0.456346
 N    -0.592584    -1.347252    -0.765011
 N     2.159137     0.739867     0.632326
 C     3.393529     0.275818     0.450159
 N     3.407715    -1.032597    -0.044123
 N    -0.064052    -3.121018     0.715313
 O    -0.902092     0.767243     0.095649
 H     4.290690     0.840699     0.618566
 H     4.221195    -1.577671    -0.285601
 H    -1.591612    -1.437713    -0.907440
 H    -0.930222    -3.025630     1.200937
 H     0.590065    -3.765624     1.105918



