 $guess  guess=huckel $end
 $basis  gbasis=N31 ngauss=6 diffsp=.T. ndfunc=1 $end
 $CONTRL SCFTYP=RHF DFTTYP=B3LYP MOLPLT=.FALSE. 
         ICHARG=1 TDDFT=EXCITE RUNTYP=GRADIENT NPRINT=3 
         MULT=1  $END
 $system timlim=4 mwords=100 memddi=200 $end
 $TDDFT IROOT=1 TAMMD=.FALSE. NSTATE=2 
         MULT=1  $END
 $data
energy & gradient..
C1
c            6.0  -3.0453098   0.3913462   0.2239713
n            7.0  -0.6860475   0.0853273   0.0499178
h            1.0  -3.5081203   0.9918811   1.0618490
h            1.0  -3.7578053  -0.0023600  -0.5598433
h            1.0  -0.2656266  -0.4378250  -0.7545277
h            1.0  -0.0329221   0.5063990   0.7524858
$end
