%chk=gaussian.chk
%mem=1GB
%nproc=2
# force td(singlet, root=1, nstates=2) cam-b3lyp/6-31g* scf=(tight,maxcycle=10000) iop(9/40=20) nosymm pop=full 

[0] [0]

1   1   
c           -0.9707984   0.1415178   0.0885313
n            0.3163128  -0.0451144  -0.0374472
h          -11.4756818   0.7930496   0.3698877
h          -11.2513470   2.0961291   1.2397317
h            0.4739985  -1.0946307  -0.0371329
h            0.7422085   0.9276464  -0.1540440


