%Nproc=4
%mem=800MB
%NoSave
%chk=s0.chk

#P hf/3-21G

S1_1--b3lyp---cc-pvdz

0  1
C    -0.22215     1.45259     0.01071
C     0.83479     0.49719    -0.00389
C     0.54128    -0.84209    -0.00656
N    -0.68632    -1.41525     0.00692
C    -1.67204    -0.56828    -0.01413
N    -1.48160     0.78254     0.00158
N     2.21498     0.67611     0.00185
C     2.72559    -0.50887    -0.00139
N     1.73218    -1.48908     0.00445
N    -2.94017    -1.01835     0.00395
O    -0.20646     2.66413    -0.00335
H     3.75972    -0.75318    -0.00946
H     1.84934    -2.47733    -0.01186
H    -2.26574     1.40337     0.00361
H    -3.73128    -0.41596    -0.00041
H    -3.07877    -2.00493    -0.00851
  
